5
20
0 1 10 20 30 40 61 70 78 88 80 71 62 51 42 33 23 22 12 11
19
0 9 18 36 45 54 63 72 81 90 91 93 92 82 73 64 55 46 27
20
0 21 32 41 50 60 69 79 89 98 97 96 87 76 67 66 57 47 38 19
19
0 28 37 56 65 74 75 83 84 85 94 95 86 77 68 58 48 39 29
25
0 3 4 5 6 7 8 17 16 26 35 31 49 59 52 53 44 43 34 25 24 15 14 13 2
